cleaned_string_benchmarks/operator-statistics/sv-comp/17590_jbmc-regression_StringBuilderChars03_Main_1.out
&&	4
<=	2
str.len	6
assert	3
variable	1
<	4
